Minimize
  - 26 y_0 - 25 y_1 - 19 y_2 - 24 y_4 - 14 y_5 - 31 y_6 - 26 y_7 - 26 y_8
   - 24 y_9 - 12 y_10 - 9 y_11 - 4 y_12 - 21 y_13 - 15 y_14 - 21 y_15
   - 28 y_16 - 11 y_17 - 20 y_18 - 11 y_19 - 13 y_20 - 20 y_21 - 9 y_22
   - 6 y_23 - 10 y_24 - 21 y_25 - 33 y_26 - 24 y_27 - 2 y_28 - 6 y_29
   - 9 y_30 - 12 y_31 - 20 y_32 - 28 y_33 - 22 y_34 - 10 y_35 - 16 y_36
   - 27 y_37 - 14 y_38 - 26 y_39 - 8 y_40 - 19 y_41 - 17 y_42 - 22 y_43
   - 20 y_44 - 30 y_45 - 29 y_46 - 21 y_47 - 23 y_48 - 7 y_49 + 17 x_0_1
   + 77 x_0_2 + 104 x_0_3 + 46 x_0_6 + 3 x_0_7 + 61 x_0_8 + 64 x_0_10
   + 72 x_0_11 + 33 x_0_16 + 58 x_0_17 + 99 x_0_18 + 59 x_0_19 + 103 x_0_21
   + 87 x_0_23 + 30 x_0_27 + 80 x_0_29 + 57 x_0_31 + 99 x_0_32 + 27 x_0_33
   + 21 x_0_39 + 96 x_0_40 + 88 x_0_41 + 36 x_0_47 + 77 x_0_49 + 99 x_1_3
   + 83 x_1_4 + 34 x_1_6 + 4 x_1_9 + 65 x_1_10 + 65 x_1_11 + 67 x_1_14
   + 55 x_1_19 + 75 x_1_20 + 88 x_1_21 + 67 x_1_22 + 80 x_1_23 + 46 x_1_26
   + 44 x_1_27 + 75 x_1_29 + 83 x_1_32 + 48 x_1_36 + 49 x_1_37 + 37 x_1_42
   + 45 x_1_43 + 38 x_1_46 + 29 x_1_48 + 77 x_2_3 + 26 x_2_4 + 25 x_2_5
   + 77 x_2_10 + 50 x_2_11 + 61 x_2_12 + 73 x_2_15 + 60 x_2_16 + 57 x_2_19
   + 29 x_2_20 + 26 x_2_21 + 22 x_2_25 + 93 x_2_27 + 41 x_2_30 + 78 x_2_34
   + 38 x_2_35 + 49 x_2_40 + 12 x_2_41 + 30 x_2_42 + 86 x_2_47 + 35 x_2_48
   + 60 x_2_49 + 55 x_3_5 + 124 x_3_6 + 105 x_3_7 + 47 x_3_10 + 35 x_3_11
   + 17 x_3_12 + 60 x_3_14 + 45 x_3_19 + 51 x_3_20 + 82 x_3_21 + 35 x_3_22
   + 22 x_3_23 + 133 x_3_26 + 8 x_3_28 + 24 x_3_29 + 89 x_3_34 + 40 x_3_35
   + 102 x_3_39 + 32 x_3_40 + 74 x_3_41 + 121 x_3_45 + 117 x_3_46
   + 92 x_3_48 + 27 x_3_49 + 41 x_4_5 + 45 x_4_8 + 84 x_4_9 + 73 x_4_11
   + 80 x_4_12 + 20 x_4_13 + 38 x_4_14 + 98 x_4_15 + 77 x_4_16 + 80 x_4_17
   + 17 x_4_18 + 82 x_4_19 + 90 x_4_22 + 75 x_4_23 + 77 x_4_26 + 82 x_4_29
   + 62 x_4_30 + 86 x_4_31 + 82 x_4_33 + 103 x_4_34 + 42 x_4_37 + 80 x_4_39
   + 22 x_4_41 + 63 x_4_46 + 83 x_4_49 + 86 x_5_6 + 73 x_5_9 + 67 x_5_10
   + 35 x_5_11 + 39 x_5_12 + 30 x_5_13 + 8 x_5_14 + 76 x_5_15 + 46 x_5_17
   + 25 x_5_18 + 35 x_5_23 + 24 x_5_24 + 40 x_5_25 + 48 x_5_28 + 42 x_5_29
   + 22 x_5_30 + 81 x_5_33 + 27 x_5_36 + 58 x_5_37 + 54 x_5_38 + 74 x_5_39
   + 24 x_5_40 + 91 x_5_43 + 78 x_5_45 + 74 x_5_46 + 43 x_5_49 + 48 x_6_7
   + 78 x_6_14 + 14 x_6_16 + 81 x_6_17 + 85 x_6_18 + 83 x_6_19 + 88 x_6_20
   + 89 x_6_21 + 96 x_6_22 + 103 x_6_23 + 13 x_6_26 + 84 x_6_32 + 63 x_6_34
   + 94 x_6_35 + 36 x_6_37 + 74 x_6_38 + 77 x_6_41 + 78 x_6_43 + 54 x_6_44
   + 14 x_6_46 + 79 x_6_47 + 33 x_6_48 + 98 x_6_49 + 63 x_7_8 + 64 x_7_10
   + 83 x_7_13 + 36 x_7_16 + 59 x_7_17 + 101 x_7_18 + 60 x_7_19 + 90 x_7_20
   + 106 x_7_21 + 61 x_7_26 + 83 x_7_30 + 29 x_7_33 + 19 x_7_34 + 90 x_7_35
   + 62 x_7_36 + 68 x_7_37 + 48 x_7_38 + 24 x_7_39 + 98 x_7_40 + 32 x_7_43
   + 25 x_7_44 + 55 x_7_45 + 48 x_7_48 + 78 x_7_49 + 71 x_8_11 + 88 x_8_12
   + 50 x_8_14 + 53 x_8_18 + 71 x_8_19 + 65 x_8_24 + 21 x_8_25 + 34 x_8_26
   + 86 x_8_27 + 96 x_8_28 + 83 x_8_29 + 39 x_8_33 + 80 x_8_40 + 85 x_8_43
   + 84 x_8_47 + 18 x_8_48 + 81 x_8_49 + 62 x_9_11 + 64 x_9_13 + 26 x_9_15
   + 24 x_9_16 + 50 x_9_17 + 83 x_9_18 + 74 x_9_20 + 88 x_9_21 + 77 x_9_23
   + 40 x_9_25 + 41 x_9_27 + 89 x_9_28 + 72 x_9_29 + 70 x_9_30 + 50 x_9_31
   + 83 x_9_32 + 19 x_9_33 + 51 x_9_37 + 9 x_9_39 + 84 x_9_40 + 36 x_9_42
   + 41 x_9_46 + 41 x_9_47 + 30 x_9_48 + 43 x_10_12 + 83 x_10_16
   + 20 x_10_19 + 64 x_10_20 + 16 x_10_22 + 41 x_10_23 + 43 x_10_24
   + 69 x_10_25 + 47 x_10_30 + 80 x_10_33 + 52 x_10_36 + 92 x_10_37
   + 23 x_10_38 + 70 x_10_39 + 81 x_10_41 + 52 x_10_42 + 97 x_10_45
   + 94 x_10_46 + 57 x_11_13 + 36 x_11_14 + 15 x_11_17 + 60 x_11_18
   + 32 x_11_20 + 64 x_11_21 + 17 x_11_22 + 16 x_11_23 + 12 x_11_24
   + 98 x_11_26 + 69 x_11_27 + 27 x_11_28 + 62 x_11_32 + 25 x_11_35
   + 74 x_11_37 + 67 x_11_39 + 51 x_11_41 + 35 x_11_42 + 48 x_11_44
   + 86 x_11_45 + 57 x_11_47 + 67 x_12_13 + 43 x_12_14 + 73 x_12_15
   + 64 x_12_18 + 35 x_12_20 + 67 x_12_21 + 67 x_12_25 + 87 x_12_27
   + 9 x_12_28 + 13 x_12_29 + 19 x_12_30 + 38 x_12_31 + 79 x_12_34
   + 24 x_12_35 + 89 x_12_37 + 88 x_12_39 + 81 x_12_43 + 101 x_12_46
   + 75 x_12_47 + 76 x_12_48 + 24 x_13_14 + 78 x_13_15 + 61 x_13_17
   + 21 x_13_18 + 34 x_13_20 + 73 x_13_22 + 24 x_13_25 + 66 x_13_26
   + 76 x_13_28 + 67 x_13_29 + 20 x_13_32 + 83 x_13_34 + 44 x_13_35
   + 31 x_13_36 + 31 x_13_37 + 64 x_13_38 + 54 x_13_40 + 95 x_13_43
   + 66 x_13_44 + 91 x_13_47 + 36 x_13_48 + 44 x_14_17 + 53 x_14_22
   + 52 x_14_28 + 73 x_14_33 + 77 x_14_34 + 20 x_14_35 + 50 x_14_37
   + 67 x_14_39 + 16 x_14_41 + 66 x_14_46 + 82 x_14_47 + 45 x_14_49
   + 93 x_15_18 + 39 x_15_19 + 76 x_15_20 + 98 x_15_21 + 55 x_15_25
   + 76 x_15_26 + 20 x_15_27 + 77 x_15_28 + 60 x_15_29 + 66 x_15_30
   + 94 x_15_32 + 51 x_15_36 + 73 x_15_37 + 35 x_15_39 + 80 x_15_40
   + 13 x_15_44 + 57 x_15_49 + 69 x_16_17 + 81 x_16_18 + 80 x_16_20
   + 83 x_16_22 + 27 x_16_26 + 88 x_16_29 + 81 x_16_30 + 70 x_16_31
   + 81 x_16_32 + 85 x_16_35 + 54 x_16_36 + 95 x_16_40 + 72 x_16_41
   + 20 x_16_46 + 65 x_16_47 + 86 x_16_49 + 69 x_17_18 + 2 x_17_19
   + 73 x_17_21 + 48 x_17_25 + 55 x_17_27 + 7 x_17_31 + 70 x_17_32
   + 45 x_17_34 + 38 x_17_35 + 30 x_17_36 + 12 x_17_38 + 49 x_17_43
   + 77 x_17_46 + 19 x_17_49 + 77 x_18_22 + 113 x_18_27 + 47 x_18_30
   + 76 x_18_31 + 2 x_18_32 + 86 x_18_33 + 99 x_18_34 + 40 x_18_35
   + 75 x_18_38 + 82 x_18_39 + 50 x_18_42 + 109 x_18_43 + 75 x_18_45
   + 71 x_18_46 + 57 x_18_48 + 69 x_18_49 + 75 x_19_21 + 13 x_19_22
   + 30 x_19_23 + 25 x_19_24 + 50 x_19_25 + 94 x_19_26 + 54 x_19_27
   + 21 x_19_29 + 69 x_19_33 + 45 x_19_34 + 39 x_19_35 + 32 x_19_36
   + 74 x_19_37 + 12 x_19_38 + 43 x_19_40 + 61 x_19_41 + 48 x_19_43
   + 36 x_19_44 + 82 x_19_45 + 79 x_19_46 + 42 x_19_47 + 18 x_19_49
   + 33 x_20_21 + 49 x_20_22 + 43 x_20_28 + 38 x_20_29 + 18 x_20_30
   + 51 x_20_31 + 31 x_20_32 + 83 x_20_33 + 82 x_20_34 + 10 x_20_35
   + 28 x_20_36 + 52 x_20_38 + 76 x_20_39 + 38 x_20_42 + 81 x_20_45
   + 84 x_20_47 + 63 x_21_23 + 48 x_21_25 + 90 x_21_26 + 118 x_21_27
   + 71 x_21_29 + 80 x_21_31 + 43 x_21_35 + 79 x_21_38 + 86 x_21_39
   + 55 x_21_42 + 86 x_21_44 + 75 x_21_46 + 110 x_21_47 + 61 x_21_48
   + 29 x_22_24 + 62 x_22_25 + 107 x_22_26 + 61 x_22_27 + 30 x_22_28
   + 15 x_22_29 + 32 x_22_30 + 79 x_22_32 + 82 x_22_33 + 68 x_22_41
   + 45 x_22_42 + 54 x_22_43 + 95 x_22_45 + 67 x_22_48 + 18 x_23_24
   + 14 x_23_28 + 11 x_23_29 + 14 x_23_30 + 35 x_23_31 + 62 x_23_32
   + 75 x_23_34 + 99 x_23_45 + 94 x_24_26 + 77 x_24_27 + 7 x_24_30
   + 30 x_24_31 + 50 x_24_32 + 76 x_24_33 + 15 x_24_35 + 66 x_24_37
   + 67 x_24_39 + 22 x_24_40 + 52 x_24_44 + 66 x_24_47 + 75 x_25_28
   + 48 x_25_30 + 54 x_25_31 + 44 x_25_32 + 21 x_25_36 + 24 x_25_37
   + 47 x_25_38 + 60 x_25_40 + 73 x_25_43 + 39 x_25_45 + 35 x_25_46
   + 13 x_25_48 + 86 x_26_32 + 76 x_26_34 + 112 x_26_40 + 91 x_26_43
   + 66 x_26_44 + 13 x_26_45 + 17 x_26_46 + 90 x_27_28 + 49 x_27_31
   + 57 x_27_33 + 71 x_27_36 + 32 x_27_44 + 82 x_27_45 + 81 x_27_46
   + 13 x_27_47 + 74 x_28_32 + 51 x_28_38 + 67 x_28_41 + 61 x_28_42
   + 74 x_28_44 + 113 x_28_45 + 78 x_28_47 + 84 x_28_48 + 21 x_28_49
   + 21 x_29_30 + 88 x_29_33 + 29 x_29_35 + 41 x_29_36 + 60 x_29_41
   + 46 x_29_42 + 68 x_29_43 + 57 x_29_44 + 98 x_29_45 + 94 x_29_46
   + 62 x_29_47 + 69 x_29_48 + 4 x_29_49 + 83 x_30_7 + 49 x_30_32
   + 82 x_30_33 + 72 x_30_34 + 37 x_30_42 + 78 x_30_43 + 59 x_30_44
   + 83 x_30_46 + 77 x_31_32 + 69 x_31_33 + 42 x_31_34 + 45 x_31_35
   + 58 x_31_39 + 36 x_31_42 + 83 x_31_45 + 37 x_31_47 + 99 x_32_34
   + 42 x_32_35 + 76 x_32_38 + 81 x_32_39 + 82 x_32_44 + 74 x_32_45
   + 70 x_32_46 + 56 x_32_48 + 70 x_32_49 + 86 x_33_35 + 97 x_33_40
   + 37 x_33_44 + 85 x_33_49 + 80 x_34_35 + 57 x_34_36 + 75 x_34_37
   + 33 x_34_38 + 87 x_34_40 + 49 x_34_42 + 15 x_34_43 + 17 x_34_44
   + 16 x_34_47 + 63 x_34_49 + 31 x_35_36 + 48 x_35_38 + 78 x_35_39
   + 40 x_35_42 + 81 x_35_47 + 31 x_35_49 + 45 x_36_37 + 48 x_36_39
   + 55 x_36_46 + 31 x_36_48 + 39 x_36_49 + 70 x_37_38 + 80 x_37_40
   + 41 x_37_42 + 90 x_37_43 + 60 x_37_44 + 88 x_37_47 + 48 x_38_39
   + 24 x_38_44 + 74 x_38_45 + 71 x_38_46 + 32 x_38_47 + 88 x_39_40
   + 72 x_39_41 + 38 x_39_42 + 51 x_39_43 + 33 x_39_45 + 51 x_39_47
   + 25 x_39_48 + 43 x_40_41 + 51 x_40_42 + 73 x_40_44 + 99 x_40_45
   + 95 x_40_46 + 71 x_40_48 + 99 x_41_43 + 71 x_41_44 + 64 x_41_46
   + 94 x_41_47 + 31 x_42_44 + 48 x_42_46 + 56 x_42_47 + 44 x_42_49
   + 30 x_43_44 + 6 x_43_47 + 67 x_43_48 + 28 x_44_47 + 37 x_44_48
   + 54 x_44_49 + 4 x_45_46 + 28 x_45_48 + 25 x_46_48 + 58 x_47_49
   + 891 Constant
Subject To
 c_0: y_16 = 1
 c_1_0: y_0 + y_7 >= 1
 c_1_1: y_1 + y_9 >= 1
 c_1_2: y_2 >= 1
 c_1_3: y_3 >= 1
 c_1_4: y_4 >= 1
 c_1_5: y_5 + y_20 >= 1
 c_1_6: y_6 >= 1
 c_1_7: y_0 + y_7 >= 1
 c_1_8: y_8 >= 1
 c_1_9: y_1 + y_9 >= 1
 c_1_10: y_10 >= 1
 c_1_11: y_11 >= 1
 c_1_12: y_12 >= 1
 c_1_13: y_13 >= 1
 c_1_14: y_14 >= 1
 c_1_15: y_15 >= 1
 c_1_16: y_16 >= 1
 c_1_17: y_17 + y_19 >= 1
 c_1_18: y_18 + y_32 >= 1
 c_1_19: y_17 + y_19 >= 1
 c_1_20: y_5 + y_20 >= 1
 c_1_21: y_21 >= 1
 c_1_22: y_22 >= 1
 c_1_23: y_23 >= 1
 c_1_24: y_24 >= 1
 c_1_25: y_25 >= 1
 c_1_26: y_26 >= 1
 c_1_27: y_27 >= 1
 c_1_28: y_28 >= 1
 c_1_29: y_29 + y_49 >= 1
 c_1_30: y_30 >= 1
 c_1_31: y_31 >= 1
 c_1_32: y_18 + y_32 >= 1
 c_1_33: y_33 >= 1
 c_1_34: y_34 >= 1
 c_1_35: y_35 >= 1
 c_1_36: y_36 >= 1
 c_1_37: y_37 >= 1
 c_1_38: y_38 >= 1
 c_1_39: y_39 >= 1
 c_1_40: y_40 >= 1
 c_1_41: y_41 >= 1
 c_1_42: y_42 >= 1
 c_1_43: y_43 >= 1
 c_1_44: y_44 >= 1
 c_1_45: y_45 + y_46 >= 1
 c_1_46: y_45 + y_46 >= 1
 c_1_47: y_47 >= 1
 c_1_48: y_48 >= 1
 c_1_49: y_29 + y_49 >= 1
 c_2_0: - 2 y_0 + x_0_1 + x_0_2 + x_0_3 + x_0_6 + x_0_7 + x_0_8 + x_0_10
   + x_0_11 + x_0_16 + x_0_17 + x_0_18 + x_0_19 + x_0_21 + x_0_23 + x_0_27
   + x_0_29 + x_0_31 + x_0_32 + x_0_33 + x_0_39 + x_0_40 + x_0_41 + x_0_47
   + x_0_49 = 0
 c_2_1: - 2 y_1 + x_0_1 + x_1_3 + x_1_4 + x_1_6 + x_1_9 + x_1_10 + x_1_11
   + x_1_14 + x_1_19 + x_1_20 + x_1_21 + x_1_22 + x_1_23 + x_1_26 + x_1_27
   + x_1_29 + x_1_32 + x_1_36 + x_1_37 + x_1_42 + x_1_43 + x_1_46 + x_1_48
   = 0
 c_2_2: - 2 y_2 + x_0_2 + x_2_3 + x_2_4 + x_2_5 + x_2_10 + x_2_11 + x_2_12
   + x_2_15 + x_2_16 + x_2_19 + x_2_20 + x_2_21 + x_2_25 + x_2_27 + x_2_30
   + x_2_34 + x_2_35 + x_2_40 + x_2_41 + x_2_42 + x_2_47 + x_2_48 + x_2_49
   = 0
 c_2_3: - 2 y_3 + x_0_3 + x_1_3 + x_2_3 + x_3_5 + x_3_6 + x_3_7 + x_3_10
   + x_3_11 + x_3_12 + x_3_14 + x_3_19 + x_3_20 + x_3_21 + x_3_22 + x_3_23
   + x_3_26 + x_3_28 + x_3_29 + x_3_34 + x_3_35 + x_3_39 + x_3_40 + x_3_41
   + x_3_45 + x_3_46 + x_3_48 + x_3_49 = 0
 c_2_4: - 2 y_4 + x_1_4 + x_2_4 + x_4_5 + x_4_8 + x_4_9 + x_4_11 + x_4_12
   + x_4_13 + x_4_14 + x_4_15 + x_4_16 + x_4_17 + x_4_18 + x_4_19 + x_4_22
   + x_4_23 + x_4_26 + x_4_29 + x_4_30 + x_4_31 + x_4_33 + x_4_34 + x_4_37
   + x_4_39 + x_4_41 + x_4_46 + x_4_49 = 0
 c_2_5: - 2 y_5 + x_2_5 + x_3_5 + x_4_5 + x_5_6 + x_5_9 + x_5_10 + x_5_11
   + x_5_12 + x_5_13 + x_5_14 + x_5_15 + x_5_17 + x_5_18 + x_5_23 + x_5_24
   + x_5_25 + x_5_28 + x_5_29 + x_5_30 + x_5_33 + x_5_36 + x_5_37 + x_5_38
   + x_5_39 + x_5_40 + x_5_43 + x_5_45 + x_5_46 + x_5_49 = 0
 c_2_6: - 2 y_6 + x_0_6 + x_1_6 + x_3_6 + x_5_6 + x_6_7 + x_6_14 + x_6_16
   + x_6_17 + x_6_18 + x_6_19 + x_6_20 + x_6_21 + x_6_22 + x_6_23 + x_6_26
   + x_6_32 + x_6_34 + x_6_35 + x_6_37 + x_6_38 + x_6_41 + x_6_43 + x_6_44
   + x_6_46 + x_6_47 + x_6_48 + x_6_49 = 0
 c_2_7: - 2 y_7 + x_0_7 + x_3_7 + x_6_7 + x_7_8 + x_7_10 + x_7_13 + x_7_16
   + x_7_17 + x_7_18 + x_7_19 + x_7_20 + x_7_21 + x_7_26 + x_7_33 + x_7_34
   + x_7_35 + x_7_36 + x_7_37 + x_7_38 + x_7_39 + x_7_40 + x_7_43 + x_7_44
   + x_7_45 + x_7_48 + x_7_49 + 2 x_30_7 = 0
 c_2_8: - 2 y_8 + x_0_8 + x_4_8 + x_7_8 + x_8_11 + x_8_12 + x_8_14 + x_8_18
   + x_8_19 + x_8_24 + x_8_25 + x_8_26 + x_8_27 + x_8_28 + x_8_29 + x_8_33
   + x_8_40 + x_8_43 + x_8_47 + x_8_48 + x_8_49 = 0
 c_2_9: - 2 y_9 + x_1_9 + x_4_9 + x_5_9 + x_9_11 + x_9_13 + x_9_15 + x_9_16
   + x_9_17 + x_9_18 + x_9_20 + x_9_21 + x_9_23 + x_9_25 + x_9_27 + x_9_28
   + x_9_29 + x_9_30 + x_9_31 + x_9_32 + x_9_33 + x_9_37 + x_9_39 + x_9_40
   + x_9_42 + x_9_46 + x_9_47 + x_9_48 = 0
 c_2_10: - 2 y_10 + x_0_10 + x_1_10 + x_2_10 + x_3_10 + x_5_10 + x_7_10
   + x_10_12 + x_10_16 + x_10_19 + x_10_20 + x_10_22 + x_10_23 + x_10_24
   + x_10_25 + x_10_30 + x_10_33 + x_10_36 + x_10_37 + x_10_38 + x_10_39
   + x_10_41 + x_10_42 + x_10_45 + x_10_46 = 0
 c_2_11: - 2 y_11 + x_0_11 + x_1_11 + x_2_11 + x_3_11 + x_4_11 + x_5_11
   + x_8_11 + x_9_11 + x_11_13 + x_11_14 + x_11_17 + x_11_18 + x_11_20
   + x_11_21 + x_11_22 + x_11_23 + x_11_24 + x_11_26 + x_11_27 + x_11_28
   + x_11_32 + x_11_35 + x_11_37 + x_11_39 + x_11_41 + x_11_42 + x_11_44
   + x_11_45 + x_11_47 = 0
 c_2_12: - 2 y_12 + x_2_12 + x_3_12 + x_4_12 + x_5_12 + x_8_12 + x_10_12
   + x_12_13 + x_12_14 + x_12_15 + x_12_18 + x_12_20 + x_12_21 + x_12_25
   + x_12_27 + x_12_28 + x_12_29 + x_12_30 + x_12_31 + x_12_34 + x_12_35
   + x_12_37 + x_12_39 + x_12_43 + x_12_46 + x_12_47 + x_12_48 = 0
 c_2_13: - 2 y_13 + x_4_13 + x_5_13 + x_7_13 + x_9_13 + x_11_13 + x_12_13
   + x_13_14 + x_13_15 + x_13_17 + x_13_18 + x_13_20 + x_13_22 + x_13_25
   + x_13_26 + x_13_28 + x_13_29 + x_13_32 + x_13_34 + x_13_35 + x_13_36
   + x_13_37 + x_13_38 + x_13_40 + x_13_43 + x_13_44 + x_13_47 + x_13_48
   = 0
 c_2_14: - 2 y_14 + x_1_14 + x_3_14 + x_4_14 + x_5_14 + x_6_14 + x_8_14
   + x_11_14 + x_12_14 + x_13_14 + x_14_17 + x_14_22 + x_14_28 + x_14_33
   + x_14_34 + x_14_35 + x_14_37 + x_14_39 + x_14_41 + x_14_46 + x_14_47
   + x_14_49 = 0
 c_2_15: - 2 y_15 + x_2_15 + x_4_15 + x_5_15 + x_9_15 + x_12_15 + x_13_15
   + x_15_18 + x_15_19 + x_15_20 + x_15_21 + x_15_25 + x_15_26 + x_15_27
   + x_15_28 + x_15_29 + x_15_30 + x_15_32 + x_15_36 + x_15_37 + x_15_39
   + x_15_40 + x_15_44 + x_15_49 = 0
 c_2_16: - 2 y_16 + x_0_16 + x_2_16 + x_4_16 + x_6_16 + x_7_16 + x_9_16
   + x_10_16 + x_16_17 + x_16_18 + x_16_20 + x_16_22 + x_16_26 + x_16_29
   + x_16_30 + x_16_31 + x_16_32 + x_16_35 + x_16_36 + x_16_40 + x_16_41
   + x_16_46 + x_16_47 + x_16_49 = 0
 c_2_17: - 2 y_17 + x_0_17 + x_4_17 + x_5_17 + x_6_17 + x_7_17 + x_9_17
   + x_11_17 + x_13_17 + x_14_17 + x_16_17 + x_17_18 + x_17_19 + x_17_21
   + x_17_25 + x_17_27 + x_17_31 + x_17_32 + x_17_34 + x_17_35 + x_17_36
   + x_17_38 + x_17_43 + x_17_46 + x_17_49 = 0
 c_2_18: - 2 y_18 + x_0_18 + x_4_18 + x_5_18 + x_6_18 + x_7_18 + x_8_18
   + x_9_18 + x_11_18 + x_12_18 + x_13_18 + x_15_18 + x_16_18 + x_17_18
   + x_18_22 + x_18_27 + x_18_30 + x_18_31 + x_18_32 + x_18_33 + x_18_34
   + x_18_35 + x_18_38 + x_18_39 + x_18_42 + x_18_43 + x_18_45 + x_18_46
   + x_18_48 + x_18_49 = 0
 c_2_19: - 2 y_19 + x_0_19 + x_1_19 + x_2_19 + x_3_19 + x_4_19 + x_6_19
   + x_7_19 + x_8_19 + x_10_19 + x_15_19 + x_17_19 + x_19_21 + x_19_22
   + x_19_23 + x_19_24 + x_19_25 + x_19_26 + x_19_27 + x_19_29 + x_19_33
   + x_19_34 + x_19_35 + x_19_36 + x_19_37 + x_19_38 + x_19_40 + x_19_41
   + x_19_43 + x_19_44 + x_19_45 + x_19_46 + x_19_47 + x_19_49 = 0
 c_2_20: - 2 y_20 + x_1_20 + x_2_20 + x_3_20 + x_6_20 + x_7_20 + x_9_20
   + x_10_20 + x_11_20 + x_12_20 + x_13_20 + x_15_20 + x_16_20 + x_20_21
   + x_20_22 + x_20_28 + x_20_29 + x_20_30 + x_20_31 + x_20_32 + x_20_33
   + x_20_34 + x_20_35 + x_20_36 + x_20_38 + x_20_39 + x_20_42 + x_20_45
   + x_20_47 = 0
 c_2_21: - 2 y_21 + x_0_21 + x_1_21 + x_2_21 + x_3_21 + x_6_21 + x_7_21
   + x_9_21 + x_11_21 + x_12_21 + x_15_21 + x_17_21 + x_19_21 + x_20_21
   + x_21_23 + x_21_25 + x_21_26 + x_21_27 + x_21_29 + x_21_31 + x_21_35
   + x_21_38 + x_21_39 + x_21_42 + x_21_44 + x_21_46 + x_21_47 + x_21_48
   = 0
 c_2_22: - 2 y_22 + x_1_22 + x_3_22 + x_4_22 + x_6_22 + x_10_22 + x_11_22
   + x_13_22 + x_14_22 + x_16_22 + x_18_22 + x_19_22 + x_20_22 + x_22_24
   + x_22_25 + x_22_26 + x_22_27 + x_22_28 + x_22_29 + x_22_30 + x_22_32
   + x_22_33 + x_22_41 + x_22_42 + x_22_43 + x_22_45 + x_22_48 = 0
 c_2_23: - 2 y_23 + x_0_23 + x_1_23 + x_3_23 + x_4_23 + x_5_23 + x_6_23
   + x_9_23 + x_10_23 + x_11_23 + x_19_23 + x_21_23 + x_23_24 + x_23_28
   + x_23_29 + x_23_30 + x_23_31 + x_23_32 + x_23_34 + x_23_45 = 0
 c_2_24: - 2 y_24 + x_5_24 + x_8_24 + x_10_24 + x_11_24 + x_19_24 + x_22_24
   + x_23_24 + x_24_26 + x_24_27 + x_24_30 + x_24_31 + x_24_32 + x_24_33
   + x_24_35 + x_24_37 + x_24_39 + x_24_40 + x_24_44 + x_24_47 = 0
 c_2_25: - 2 y_25 + x_2_25 + x_5_25 + x_8_25 + x_9_25 + x_10_25 + x_12_25
   + x_13_25 + x_15_25 + x_17_25 + x_19_25 + x_21_25 + x_22_25 + x_25_28
   + x_25_30 + x_25_31 + x_25_32 + x_25_36 + x_25_37 + x_25_38 + x_25_40
   + x_25_43 + x_25_45 + x_25_46 + x_25_48 = 0
 c_2_26: - 2 y_26 + x_1_26 + x_3_26 + x_4_26 + x_6_26 + x_7_26 + x_8_26
   + x_11_26 + x_13_26 + x_15_26 + x_16_26 + x_19_26 + x_21_26 + x_22_26
   + x_24_26 + x_26_32 + x_26_34 + x_26_40 + x_26_43 + x_26_44 + x_26_45
   + x_26_46 = 0
 c_2_27: - 2 y_27 + x_0_27 + x_1_27 + x_2_27 + x_8_27 + x_9_27 + x_11_27
   + x_12_27 + x_15_27 + x_17_27 + x_18_27 + x_19_27 + x_21_27 + x_22_27
   + x_24_27 + x_27_28 + x_27_31 + x_27_33 + x_27_36 + x_27_44 + x_27_45
   + x_27_46 + x_27_47 = 0
 c_2_28: - 2 y_28 + x_3_28 + x_5_28 + x_8_28 + x_9_28 + x_11_28 + x_12_28
   + x_13_28 + x_14_28 + x_15_28 + x_20_28 + x_22_28 + x_23_28 + x_25_28
   + x_27_28 + x_28_32 + x_28_38 + x_28_41 + x_28_42 + x_28_44 + x_28_45
   + x_28_47 + x_28_48 + x_28_49 = 0
 c_2_29: - 2 y_29 + x_0_29 + x_1_29 + x_3_29 + x_4_29 + x_5_29 + x_8_29
   + x_9_29 + x_12_29 + x_13_29 + x_15_29 + x_16_29 + x_19_29 + x_20_29
   + x_21_29 + x_22_29 + x_23_29 + x_29_30 + x_29_33 + x_29_35 + x_29_36
   + x_29_41 + x_29_42 + x_29_43 + x_29_44 + x_29_45 + x_29_46 + x_29_47
   + x_29_48 + x_29_49 = 0
 c_2_30: - 2 y_30 + x_2_30 + x_4_30 + x_5_30 + x_9_30 + x_10_30 + x_12_30
   + x_15_30 + x_16_30 + x_18_30 + x_20_30 + x_22_30 + x_23_30 + x_24_30
   + x_25_30 + x_29_30 + 2 x_30_7 + x_30_32 + x_30_33 + x_30_34 + x_30_42
   + x_30_43 + x_30_44 + x_30_46 = 0
 c_2_31: - 2 y_31 + x_0_31 + x_4_31 + x_9_31 + x_12_31 + x_16_31 + x_17_31
   + x_18_31 + x_20_31 + x_21_31 + x_23_31 + x_24_31 + x_25_31 + x_27_31
   + x_31_32 + x_31_33 + x_31_34 + x_31_35 + x_31_39 + x_31_42 + x_31_45
   + x_31_47 = 0
 c_2_32: - 2 y_32 + x_0_32 + x_1_32 + x_6_32 + x_9_32 + x_11_32 + x_13_32
   + x_15_32 + x_16_32 + x_17_32 + x_18_32 + x_20_32 + x_22_32 + x_23_32
   + x_24_32 + x_25_32 + x_26_32 + x_28_32 + x_30_32 + x_31_32 + x_32_34
   + x_32_35 + x_32_38 + x_32_39 + x_32_44 + x_32_45 + x_32_46 + x_32_48
   + x_32_49 = 0
 c_2_33: - 2 y_33 + x_0_33 + x_4_33 + x_5_33 + x_7_33 + x_8_33 + x_9_33
   + x_10_33 + x_14_33 + x_18_33 + x_19_33 + x_20_33 + x_22_33 + x_24_33
   + x_27_33 + x_29_33 + x_30_33 + x_31_33 + x_33_35 + x_33_40 + x_33_44
   + x_33_49 = 0
 c_2_34: - 2 y_34 + x_2_34 + x_3_34 + x_4_34 + x_6_34 + x_7_34 + x_12_34
   + x_13_34 + x_14_34 + x_17_34 + x_18_34 + x_19_34 + x_20_34 + x_23_34
   + x_26_34 + x_30_34 + x_31_34 + x_32_34 + x_34_35 + x_34_36 + x_34_37
   + x_34_38 + x_34_40 + x_34_42 + x_34_43 + x_34_44 + x_34_47 + x_34_49
   = 0
 c_2_35: - 2 y_35 + x_2_35 + x_3_35 + x_6_35 + x_7_35 + x_11_35 + x_12_35
   + x_13_35 + x_14_35 + x_16_35 + x_17_35 + x_18_35 + x_19_35 + x_20_35
   + x_21_35 + x_24_35 + x_29_35 + x_31_35 + x_32_35 + x_33_35 + x_34_35
   + x_35_36 + x_35_38 + x_35_39 + x_35_42 + x_35_47 + x_35_49 = 0
 c_2_36: - 2 y_36 + x_1_36 + x_5_36 + x_7_36 + x_10_36 + x_13_36 + x_15_36
   + x_16_36 + x_17_36 + x_19_36 + x_20_36 + x_25_36 + x_27_36 + x_29_36
   + x_34_36 + x_35_36 + x_36_37 + x_36_39 + x_36_46 + x_36_48 + x_36_49
   = 0
 c_2_37: - 2 y_37 + x_1_37 + x_4_37 + x_5_37 + x_6_37 + x_7_37 + x_9_37
   + x_10_37 + x_11_37 + x_12_37 + x_13_37 + x_14_37 + x_15_37 + x_19_37
   + x_24_37 + x_25_37 + x_34_37 + x_36_37 + x_37_38 + x_37_40 + x_37_42
   + x_37_43 + x_37_44 + x_37_47 = 0
 c_2_38: - 2 y_38 + x_5_38 + x_6_38 + x_7_38 + x_10_38 + x_13_38 + x_17_38
   + x_18_38 + x_19_38 + x_20_38 + x_21_38 + x_25_38 + x_28_38 + x_32_38
   + x_34_38 + x_35_38 + x_37_38 + x_38_39 + x_38_44 + x_38_45 + x_38_46
   + x_38_47 = 0
 c_2_39: - 2 y_39 + x_0_39 + x_3_39 + x_4_39 + x_5_39 + x_7_39 + x_9_39
   + x_10_39 + x_11_39 + x_12_39 + x_14_39 + x_15_39 + x_18_39 + x_20_39
   + x_21_39 + x_24_39 + x_31_39 + x_32_39 + x_35_39 + x_36_39 + x_38_39
   + x_39_40 + x_39_41 + x_39_42 + x_39_43 + x_39_45 + x_39_47 + x_39_48
   = 0
 c_2_40: - 2 y_40 + x_0_40 + x_2_40 + x_3_40 + x_5_40 + x_7_40 + x_8_40
   + x_9_40 + x_13_40 + x_15_40 + x_16_40 + x_19_40 + x_24_40 + x_25_40
   + x_26_40 + x_33_40 + x_34_40 + x_37_40 + x_39_40 + x_40_41 + x_40_42
   + x_40_44 + x_40_45 + x_40_46 + x_40_48 = 0
 c_2_41: - 2 y_41 + x_0_41 + x_2_41 + x_3_41 + x_4_41 + x_6_41 + x_10_41
   + x_11_41 + x_14_41 + x_16_41 + x_19_41 + x_22_41 + x_28_41 + x_29_41
   + x_39_41 + x_40_41 + x_41_43 + x_41_44 + x_41_46 + x_41_47 = 0
 c_2_42: - 2 y_42 + x_1_42 + x_2_42 + x_9_42 + x_10_42 + x_11_42 + x_18_42
   + x_20_42 + x_21_42 + x_22_42 + x_28_42 + x_29_42 + x_30_42 + x_31_42
   + x_34_42 + x_35_42 + x_37_42 + x_39_42 + x_40_42 + x_42_44 + x_42_46
   + x_42_47 + x_42_49 = 0
 c_2_43: - 2 y_43 + x_1_43 + x_5_43 + x_6_43 + x_7_43 + x_8_43 + x_12_43
   + x_13_43 + x_17_43 + x_18_43 + x_19_43 + x_22_43 + x_25_43 + x_26_43
   + x_29_43 + x_30_43 + x_34_43 + x_37_43 + x_39_43 + x_41_43 + x_43_44
   + x_43_47 + x_43_48 = 0
 c_2_44: - 2 y_44 + x_6_44 + x_7_44 + x_11_44 + x_13_44 + x_15_44 + x_19_44
   + x_21_44 + x_24_44 + x_26_44 + x_27_44 + x_28_44 + x_29_44 + x_30_44
   + x_32_44 + x_33_44 + x_34_44 + x_37_44 + x_38_44 + x_40_44 + x_41_44
   + x_42_44 + x_43_44 + x_44_47 + x_44_48 + x_44_49 = 0
 c_2_45: - 2 y_45 + x_3_45 + x_5_45 + x_7_45 + x_10_45 + x_11_45 + x_18_45
   + x_19_45 + x_20_45 + x_22_45 + x_23_45 + x_25_45 + x_26_45 + x_27_45
   + x_28_45 + x_29_45 + x_31_45 + x_32_45 + x_38_45 + x_39_45 + x_40_45
   + x_45_46 + x_45_48 = 0
 c_2_46: - 2 y_46 + x_1_46 + x_3_46 + x_4_46 + x_5_46 + x_6_46 + x_9_46
   + x_10_46 + x_12_46 + x_14_46 + x_16_46 + x_17_46 + x_18_46 + x_19_46
   + x_21_46 + x_25_46 + x_26_46 + x_27_46 + x_29_46 + x_30_46 + x_32_46
   + x_36_46 + x_38_46 + x_40_46 + x_41_46 + x_42_46 + x_45_46 + x_46_48
   = 0
 c_2_47: - 2 y_47 + x_0_47 + x_2_47 + x_6_47 + x_8_47 + x_9_47 + x_11_47
   + x_12_47 + x_13_47 + x_14_47 + x_16_47 + x_19_47 + x_20_47 + x_21_47
   + x_24_47 + x_27_47 + x_28_47 + x_29_47 + x_31_47 + x_34_47 + x_35_47
   + x_37_47 + x_38_47 + x_39_47 + x_41_47 + x_42_47 + x_43_47 + x_44_47
   + x_47_49 = 0
 c_2_48: - 2 y_48 + x_1_48 + x_2_48 + x_3_48 + x_6_48 + x_7_48 + x_8_48
   + x_9_48 + x_12_48 + x_13_48 + x_18_48 + x_21_48 + x_22_48 + x_25_48
   + x_28_48 + x_29_48 + x_32_48 + x_36_48 + x_39_48 + x_40_48 + x_43_48
   + x_44_48 + x_45_48 + x_46_48 = 0
 c_2_49: - 2 y_49 + x_0_49 + x_2_49 + x_3_49 + x_4_49 + x_5_49 + x_6_49
   + x_7_49 + x_8_49 + x_14_49 + x_15_49 + x_16_49 + x_17_49 + x_18_49
   + x_19_49 + x_28_49 + x_29_49 + x_32_49 + x_33_49 + x_34_49 + x_35_49
   + x_36_49 + x_42_49 + x_44_49 + x_47_49 = 0
Bounds
 Constant = 1
Binaries
 y_0 y_1 y_2 y_3 y_4 y_5 y_6 y_7 y_8 y_9 y_10 y_11 y_12 y_13 y_14 y_15 y_16
 y_17 y_18 y_19 y_20 y_21 y_22 y_23 y_24 y_25 y_26 y_27 y_28 y_29 y_30 y_31
 y_32 y_33 y_34 y_35 y_36 y_37 y_38 y_39 y_40 y_41 y_42 y_43 y_44 y_45 y_46
 y_47 y_48 y_49 x_0_1 x_0_2 x_0_3 x_0_6 x_0_7 x_0_8 x_0_10 x_0_11 x_0_16
 x_0_17 x_0_18 x_0_19 x_0_21 x_0_23 x_0_27 x_0_29 x_0_31 x_0_32 x_0_33
 x_0_39 x_0_40 x_0_41 x_0_47 x_0_49 x_1_3 x_1_4 x_1_6 x_1_9 x_1_10 x_1_11
 x_1_14 x_1_19 x_1_20 x_1_21 x_1_22 x_1_23 x_1_26 x_1_27 x_1_29 x_1_32
 x_1_36 x_1_37 x_1_42 x_1_43 x_1_46 x_1_48 x_2_3 x_2_4 x_2_5 x_2_10 x_2_11
 x_2_12 x_2_15 x_2_16 x_2_19 x_2_20 x_2_21 x_2_25 x_2_27 x_2_30 x_2_34
 x_2_35 x_2_40 x_2_41 x_2_42 x_2_47 x_2_48 x_2_49 x_3_5 x_3_6 x_3_7 x_3_10
 x_3_11 x_3_12 x_3_14 x_3_19 x_3_20 x_3_21 x_3_22 x_3_23 x_3_26 x_3_28
 x_3_29 x_3_34 x_3_35 x_3_39 x_3_40 x_3_41 x_3_45 x_3_46 x_3_48 x_3_49
 x_4_5 x_4_8 x_4_9 x_4_11 x_4_12 x_4_13 x_4_14 x_4_15 x_4_16 x_4_17 x_4_18
 x_4_19 x_4_22 x_4_23 x_4_26 x_4_29 x_4_30 x_4_31 x_4_33 x_4_34 x_4_37
 x_4_39 x_4_41 x_4_46 x_4_49 x_5_6 x_5_9 x_5_10 x_5_11 x_5_12 x_5_13 x_5_14
 x_5_15 x_5_17 x_5_18 x_5_23 x_5_24 x_5_25 x_5_28 x_5_29 x_5_30 x_5_33
 x_5_36 x_5_37 x_5_38 x_5_39 x_5_40 x_5_43 x_5_45 x_5_46 x_5_49 x_6_7
 x_6_14 x_6_16 x_6_17 x_6_18 x_6_19 x_6_20 x_6_21 x_6_22 x_6_23 x_6_26
 x_6_32 x_6_34 x_6_35 x_6_37 x_6_38 x_6_41 x_6_43 x_6_44 x_6_46 x_6_47
 x_6_48 x_6_49 x_7_8 x_7_10 x_7_13 x_7_16 x_7_17 x_7_18 x_7_19 x_7_20
 x_7_21 x_7_26 x_7_30 x_7_33 x_7_34 x_7_35 x_7_36 x_7_37 x_7_38 x_7_39
 x_7_40 x_7_43 x_7_44 x_7_45 x_7_48 x_7_49 x_8_11 x_8_12 x_8_14 x_8_18
 x_8_19 x_8_24 x_8_25 x_8_26 x_8_27 x_8_28 x_8_29 x_8_33 x_8_40 x_8_43
 x_8_47 x_8_48 x_8_49 x_9_11 x_9_13 x_9_15 x_9_16 x_9_17 x_9_18 x_9_20
 x_9_21 x_9_23 x_9_25 x_9_27 x_9_28 x_9_29 x_9_30 x_9_31 x_9_32 x_9_33
 x_9_37 x_9_39 x_9_40 x_9_42 x_9_46 x_9_47 x_9_48 x_10_12 x_10_16 x_10_19
 x_10_20 x_10_22 x_10_23 x_10_24 x_10_25 x_10_30 x_10_33 x_10_36 x_10_37
 x_10_38 x_10_39 x_10_41 x_10_42 x_10_45 x_10_46 x_11_13 x_11_14 x_11_17
 x_11_18 x_11_20 x_11_21 x_11_22 x_11_23 x_11_24 x_11_26 x_11_27 x_11_28
 x_11_32 x_11_35 x_11_37 x_11_39 x_11_41 x_11_42 x_11_44 x_11_45 x_11_47
 x_12_13 x_12_14 x_12_15 x_12_18 x_12_20 x_12_21 x_12_25 x_12_27 x_12_28
 x_12_29 x_12_30 x_12_31 x_12_34 x_12_35 x_12_37 x_12_39 x_12_43 x_12_46
 x_12_47 x_12_48 x_13_14 x_13_15 x_13_17 x_13_18 x_13_20 x_13_22 x_13_25
 x_13_26 x_13_28 x_13_29 x_13_32 x_13_34 x_13_35 x_13_36 x_13_37 x_13_38
 x_13_40 x_13_43 x_13_44 x_13_47 x_13_48 x_14_17 x_14_22 x_14_28 x_14_33
 x_14_34 x_14_35 x_14_37 x_14_39 x_14_41 x_14_46 x_14_47 x_14_49 x_15_18
 x_15_19 x_15_20 x_15_21 x_15_25 x_15_26 x_15_27 x_15_28 x_15_29 x_15_30
 x_15_32 x_15_36 x_15_37 x_15_39 x_15_40 x_15_44 x_15_49 x_16_17 x_16_18
 x_16_20 x_16_22 x_16_26 x_16_29 x_16_30 x_16_31 x_16_32 x_16_35 x_16_36
 x_16_40 x_16_41 x_16_46 x_16_47 x_16_49 x_17_18 x_17_19 x_17_21 x_17_25
 x_17_27 x_17_31 x_17_32 x_17_34 x_17_35 x_17_36 x_17_38 x_17_43 x_17_46
 x_17_49 x_18_22 x_18_27 x_18_30 x_18_31 x_18_32 x_18_33 x_18_34 x_18_35
 x_18_38 x_18_39 x_18_42 x_18_43 x_18_45 x_18_46 x_18_48 x_18_49 x_19_21
 x_19_22 x_19_23 x_19_24 x_19_25 x_19_26 x_19_27 x_19_29 x_19_33 x_19_34
 x_19_35 x_19_36 x_19_37 x_19_38 x_19_40 x_19_41 x_19_43 x_19_44 x_19_45
 x_19_46 x_19_47 x_19_49 x_20_21 x_20_22 x_20_28 x_20_29 x_20_30 x_20_31
 x_20_32 x_20_33 x_20_34 x_20_35 x_20_36 x_20_38 x_20_39 x_20_42 x_20_45
 x_20_47 x_21_23 x_21_25 x_21_26 x_21_27 x_21_29 x_21_31 x_21_35 x_21_38
 x_21_39 x_21_42 x_21_44 x_21_46 x_21_47 x_21_48 x_22_24 x_22_25 x_22_26
 x_22_27 x_22_28 x_22_29 x_22_30 x_22_32 x_22_33 x_22_41 x_22_42 x_22_43
 x_22_45 x_22_48 x_23_24 x_23_28 x_23_29 x_23_30 x_23_31 x_23_32 x_23_34
 x_23_45 x_24_26 x_24_27 x_24_30 x_24_31 x_24_32 x_24_33 x_24_35 x_24_37
 x_24_39 x_24_40 x_24_44 x_24_47 x_25_28 x_25_30 x_25_31 x_25_32 x_25_36
 x_25_37 x_25_38 x_25_40 x_25_43 x_25_45 x_25_46 x_25_48 x_26_32 x_26_34
 x_26_40 x_26_43 x_26_44 x_26_45 x_26_46 x_27_28 x_27_31 x_27_33 x_27_36
 x_27_44 x_27_45 x_27_46 x_27_47 x_28_32 x_28_38 x_28_41 x_28_42 x_28_44
 x_28_45 x_28_47 x_28_48 x_28_49 x_29_30 x_29_33 x_29_35 x_29_36 x_29_41
 x_29_42 x_29_43 x_29_44 x_29_45 x_29_46 x_29_47 x_29_48 x_29_49 x_30_7
 x_30_32 x_30_33 x_30_34 x_30_42 x_30_43 x_30_44 x_30_46 x_31_32 x_31_33
 x_31_34 x_31_35 x_31_39 x_31_42 x_31_45 x_31_47 x_32_34 x_32_35 x_32_38
 x_32_39 x_32_44 x_32_45 x_32_46 x_32_48 x_32_49 x_33_35 x_33_40 x_33_44
 x_33_49 x_34_35 x_34_36 x_34_37 x_34_38 x_34_40 x_34_42 x_34_43 x_34_44
 x_34_47 x_34_49 x_35_36 x_35_38 x_35_39 x_35_42 x_35_47 x_35_49 x_36_37
 x_36_39 x_36_46 x_36_48 x_36_49 x_37_38 x_37_40 x_37_42 x_37_43 x_37_44
 x_37_47 x_38_39 x_38_44 x_38_45 x_38_46 x_38_47 x_39_40 x_39_41 x_39_42
 x_39_43 x_39_45 x_39_47 x_39_48 x_40_41 x_40_42 x_40_44 x_40_45 x_40_46
 x_40_48 x_41_43 x_41_44 x_41_46 x_41_47 x_42_44 x_42_46 x_42_47 x_42_49
 x_43_44 x_43_47 x_43_48 x_44_47 x_44_48 x_44_49 x_45_46 x_45_48 x_46_48
 x_47_49
End
